Route #1: 22 46 50 3 40 32
Route #2: 56 6
Route #3: 54 27 18 28 9 55 31 17 10
Route #4: 45 24 52 43 1
Route #5: 4 30 49 35 48 38 12
Route #6: 14 34 19 13 44 20 7
Route #7: 42 16 26 39 23 2
Route #8: 53 29 41 21 36 47 5
Route #9: 33 11 37 51 25 15 8
Cost 1601
Time 0.097383
